CMD:
./solvers/bin/cadical --plain --no-reduce -t 1600 ./data/cnfs//arbitrated_top_n2_w8_d32_e0/arbitrated_top_n2_w8_d32_e0.58.cnf

c --- [ banner ] -------------------------------------------------------------
c 
c CaDiCaL SAT Solver
c Copyright (c) 2016-2024
c A. Biere, M. Fleury, N. Froleyks, K. Fazekas, F. Pollitt, T. Faller
c JKU Linz, University of Freiburg, TU Wien
c 
c Version 2.1.3 5296d3d2a9bf48c154ab2acb5e44625776d821bf
c g++ (Gentoo 12.3.1_p20230526 p2) 12.3.1 20230526 -Wall -Wextra -O3 -DNDEBUG
c Sat Aug 9 07:26:21 PDT 2025 Linux cedar2.int.cedar.computecanada.ca 5.14.0-362.24.2.el9_3.x86_64 x86_64
c 
c --- [ limit ] --------------------------------------------------------------
c 
c setting time limit to 1600 seconds real time (due to '-t 1600')
c 
c --- [ parsing input ] ------------------------------------------------------
c 
c reading DIMACS file from './data/cnfs//arbitrated_top_n2_w8_d32_e0/arbitrated_top_n2_w8_d32_e0.58.cnf'
c opening file to read './data/cnfs//arbitrated_top_n2_w8_d32_e0/arbitrated_top_n2_w8_d32_e0.58.cnf'
c found 'p cnf 217772 647172' header
c parsed 647172 clauses in 0.10 seconds process time
c 
c --- [ options ] ------------------------------------------------------------
c 
c   --compact=false                (different from default 'true')
c   --decompose=false              (different from default 'true')
c   --deduplicate=false            (different from default 'true')
c   --elim=false                   (different from default 'true')
c   --probe=false                  (different from default 'true')
c   --reduce=false                 (different from default 'true')
c   --subsume=false                (different from default 'true')
c   --ternary=false                (different from default 'true')
c   --transred=false               (different from default 'true')
c   --vivify=false                 (different from default 'true')
c 
c --- [ solving ] ------------------------------------------------------------
c 
c time measured in process time since initialization
c 
c  seconds  reductions  redundant  irredundant
c         MB    restarts       trail       variables
c          level   conflicts       glue          remaining
c 
c *  0.10 91  0 0   0    0    0  0% 0 527953 132699 61%
c {  0.11 93  0 0   0    0    0  0% 0 527953 132699 61%
c i  0.16 93 822 0   0  135  134 71% 2 527953 132636 61%
c i  0.18 93 772 0   6  266  255 70% 2 527953 132628 61%
c i  0.18 93 769 0   6  267  255 70% 2 527953 132455 61%
c i  0.19 93 748 0   8  287  269 70% 2 527953 132385 61%
c i  0.20 93 728 0  10  298  277 70% 2 527953 132360 61%
c i  0.20 93 722 0  11  301  279 69% 2 527953 132015 61%
c i  0.25 93 416 0  76  559  525 57% 3 527953 131722 60%
c i  0.25 93 394 0  84  594  557 56% 3 527953 131718 60%
c }  0.28 93 251 0 174 1000  943 51% 3 527953 131718 60%
c [  0.28 93  0 0 174 1000  943  0% 0 527953 131718 60%
c i  0.28 93 678 0 174 1001  943 44% 0 527953 131717 60%
c O  0.28 93 660 0 174 1002  943 47% 0 527953 131717 60%
c i  0.28 93 660 0 174 1002  943 47% 0 527953 131716 60%
c ]  0.31 93 660 0 174 1002  943 47% 0 527953 131716 60%
c 1  0.31 93 660 0 174 1002  943 47% 0 527953 131716 60%
c 
c --- [ result ] -------------------------------------------------------------
c 
s SATISFIABLE
v 1 2 3 4 5 6 7 8 9 10 11 12 13 14 15 16 17 18 19 20 21 22 23 24 25 26 27 28
v 29 30 31 32 33 34 35 36 37 38 39 40 41 42 43 44 45 46 47 48 49 50 51 52 53
v 54 55 56 57 58 59 60 61 62 63 64 65 66 67 68 69 70 71 72 73 74 75 76 77 78
v 79 80 81 82 83 84 85 86 87 88 89 90 91 92 93 94 95 96 97 98 99 100 101 102
v 103 104 105 106 107 108 109 110 111 112 113 114 115 116 117 118 119 120 121
v 122 123 124 125 126 127 128 129 130 131 132 133 134 135 136 137 138 139 140
v 141 142 143 144 145 146 147 148 149 150 151 152 153 154 155 156 157 158 159
v 160 161 162 163 164 165 166 167 168 169 170 171 172 173 174 175 176 177 178
v 179 180 181 182 183 184 185 186 187 188 189 190 191 192 193 194 195 196 197
v 198 199 200 201 202 203 204 205 206 207 208 209 210 211 212 213 214 215 216
v 217 218 219 220 221 222 223 224 225 226 227 228 229 230 231 232 233 234 235
v 236 237 238 239 240 241 242 243 244 245 246 247 248 249 250 251 252 253 254
v 255 256 257 258 259 260 261 262 263 264 265 266 267 268 269 270 271 272 273
v 274 275 276 277 278 279 280 281 282 283 284 285 286 287 288 289 290 291 292
v 293 294 295 296 297 298 299 300 301 302 303 304 305 306 307 308 309 310 311
v 312 313 314 315 316 317 318 319 320 321 322 323 324 325 326 327 328 329 330
v 331 332 333 334 335 336 337 338 339 340 341 342 343 344 345 346 347 348 349
v 350 351 352 353 354 355 356 357 358 359 360 361 362 363 364 365 366 367 368
v 369 370 371 372 373 374 375 376 377 378 379 380 381 382 383 384 385 386 387
v 388 389 390 391 392 393 394 395 396 397 398 399 400 401 402 403 404 405 406
v 407 408 409 410 411 412 413 414 415 416 417 418 419 420 421 422 423 424 425
v 426 427 428 429 430 431 432 433 434 435 436 437 438 439 440 441 442 443 444
v 445 446 447 448 449 450 451 452 453 454 455 456 457 458 459 460 461 462 463
v 464 465 466 467 468 469 470 471 472 473 474 475 476 477 478 479 480 481 482
v 483 484 485 486 487 488 489 490 491 492 493 494 495 496 497 498 499 500 501
v 502 503 504 505 506 507 508 509 510 511 512 513 514 515 516 517 518 519 520
v 521 522 523 524 525 526 527 528 529 530 531 532 533 534 535 536 537 538 539
v 540 541 542 543 544 545 546 547 548 549 550 551 552 553 554 555 556 557 558
v 559 560 561 562 563 564 565 566 567 568 569 570 571 572 573 574 575 576 577
v 578 579 580 581 582 583 584 585 586 587 588 589 590 591 592 593 594 595 596
v 597 598 599 600 601 602 603 604 605 606 607 608 609 610 611 612 613 614 615
v 616 617 618 619 620 -621 -622 -623 624 625 626 627 628 629 -630 -631 -632
v 633 -634 -635 -636 -637 -638 639 -640 -641 -642 -643 -644 645 -646 -647 -648
... skipped 21186 lines ...
v -217303 -217304 -217305 -217306 -217307 -217308 -217309 -217310 -217311
v -217312 -217313 -217314 -217315 -217316 -217317 217318 -217319 217320
v -217321 -217322 -217323 -217324 -217325 -217326 -217327 -217328 -217329
v -217330 -217331 -217332 -217333 -217334 -217335 -217336 -217337 -217338
v 217339 -217340 217341 -217342 217343 -217344 -217345 217346 217347 -217348
v -217349 -217350 -217351 217352 -217353 -217354 -217355 -217356 -217357
v -217358 -217359 217360 -217361 -217362 -217363 217364 -217365 -217366 217367
v -217368 -217369 -217370 217371 -217372 -217373 217374 -217375 -217376
v -217377 217378 -217379 -217380 217381 -217382 217383 -217384 217385 -217386
v 217387 -217388 217389 217390 -217391 217392 217393 -217394 217395 217396
v -217397 217398 217399 -217400 217401 -217402 -217403 -217404 -217405 -217406
v -217407 -217408 -217409 -217410 -217411 -217412 -217413 -217414 -217415
v -217416 -217417 -217418 -217419 217420 -217421 217422 -217423 -217424
v -217425 -217426 -217427 -217428 -217429 -217430 -217431 -217432 -217433
v -217434 -217435 -217436 -217437 -217438 -217439 217440 -217441 217442
v -217443 -217444 -217445 -217446 -217447 -217448 -217449 -217450 -217451
v -217452 -217453 -217454 -217455 -217456 -217457 -217458 -217459 217460
v -217461 217462 -217463 -217464 -217465 -217466 -217467 -217468 -217469
v -217470 -217471 -217472 -217473 -217474 -217475 -217476 -217477 -217478
v -217479 -217480 217481 -217482 217483 -217484 -217485 -217486 -217487
v -217488 -217489 -217490 -217491 -217492 -217493 -217494 -217495 -217496
v -217497 -217498 -217499 -217500 217501 -217502 217503 -217504 -217505
v -217506 -217507 -217508 -217509 -217510 -217511 -217512 -217513 -217514
v -217515 -217516 -217517 -217518 -217519 -217520 217521 -217522 217523
v -217524 -217525 -217526 -217527 -217528 -217529 -217530 -217531 -217532
v -217533 -217534 -217535 -217536 -217537 -217538 -217539 -217540 217541
v -217542 217543 -217544 -217545 -217546 -217547 -217548 -217549 -217550
v -217551 -217552 -217553 -217554 -217555 -217556 -217557 -217558 -217559
v -217560 -217561 -217562 217563 -217564 217565 -217566 -217567 -217568
v -217569 -217570 -217571 -217572 -217573 -217574 -217575 -217576 -217577
v -217578 -217579 -217580 -217581 -217582 217583 -217584 217585 -217586
v -217587 -217588 -217589 -217590 -217591 -217592 -217593 -217594 -217595
v -217596 -217597 -217598 -217599 -217600 -217601 -217602 217603 -217604
v 217605 -217606 -217607 -217608 -217609 -217610 -217611 -217612 -217613
v -217614 -217615 -217616 -217617 -217618 -217619 -217620 -217621 -217622
v -217623 217624 -217625 217626 -217627 -217628 -217629 -217630 -217631
v -217632 -217633 -217634 -217635 -217636 -217637 -217638 -217639 -217640
v -217641 -217642 -217643 217644 -217645 217646 -217647 -217648 -217649
v -217650 -217651 -217652 -217653 -217654 -217655 -217656 -217657 -217658
v -217659 -217660 -217661 -217662 -217663 217664 -217665 217666 -217667
v -217668 -217669 -217670 -217671 -217672 -217673 -217674 -217675 -217676
v -217677 -217678 -217679 -217680 -217681 -217682 -217683 -217684 217685
v -217686 217687 -217688 -217689 -217690 -217691 -217692 -217693 -217694
v -217695 -217696 -217697 -217698 -217699 -217700 -217701 -217702 -217703
v -217704 -217705 217706 -217707 -217708 -217709 217710 -217711 -217712
v -217713 217714 -217715 -217716 -217717 -217718 -217719 -217720 -217721
v 217722 -217723 -217724 -217725 217726 -217727 217728 -217729 -217730 -217731
v 217732 -217733 217734 -217735 -217736 -217737 217738 -217739 217740 -217741
v -217742 -217743 217744 217745 -217746 217747 -217748 217749 -217750 -217751
v -217752 -217753 -217754 -217755 -217756 -217757 -217758 -217759 -217760
v -217761 -217762 -217763 -217764 -217765 -217766 217767 -217768 217769
v -217770 217771 -217772 0
c 
c --- [ run-time profiling ] -------------------------------------------------
c 
c process time taken by individual solving procedures
c (percentage relative to process time for solving)
c 
c         0.21   99.94% search
c         0.16   78.20% unstable
c         0.10   46.03% parse
c         0.03   14.97% stable
c         0.01    6.74% lucky
c         0.00    0.00% simplify
c   =================================
c         0.21   66.04% solve
c 
c last line shows process time for solving
c (percentage relative to total process time)
c 
c --- [ statistics ] ---------------------------------------------------------
c 
c chronological:               345        34.43 %  of conflicts
c conflicts:                  1002      4775.20    per second
c decisions:                 17551     83642.31    per second
c fixed:                     86041        39.51 %  of all variables
c learned:                     973        97.11 %  per conflict
c learned_lits:               9270       100.00 %  learned literals
c minimized:                     0         0.00 %  learned literals
c shrunken:                   1614        17.41 %  learned literals
c minishrunken:                783         8.45 %  learned literals
c otfs:                         17         1.70 %  of conflict
c propagations:            2303393        10.98 M  per second
c rephased:                      1      1002.00    interval
c restarts:                    174         5.76    interval
c stabilizing:                   1         0.20 %  of conflicts
c subsumed:                     20         0.00 %  of all clauses
c strengthened:                 17         0.00 %  of all clauses
c 
c seconds are measured in process time for solving
c 
c --- [ resources ] ----------------------------------------------------------
c 
c total process time since initialization:         0.32    seconds
c total real time since initialization:            0.33    seconds
c maximum resident set size of process:           93.98    MB
c 
c --- [ shutting down ] ------------------------------------------------------
c 
c exit 10
